80
82 55
50 89
53 3
69 26
90 51
60 32
88 35
8 97
39 82
4 61
18 82
9 32
17 19
77 7
11 58
32 69
5 72
65 10
56 30
40 35
21 55
52 16
18 11
84 43
76 28
44 87
98 54
13 9
50 37
75 16
54 75
82 69
75 31
96 50
56 18
82 34
55 55
89 96
63 41
50 47
66 80
6 82
21 92
40 76
49 67
10 31
83 41
33 91
79 83
82 85
50 56
100 100
47 2
29 8
23 38
70 37
76 98
100 16
83 46
88 41
67 7
94 12
74 31
52 29
14 64
78 4
14 23
20 4
7 39
12 16
25 47
78 24
42 36
89 22
55 70
2 79
58 13
83 85
36 97
76 60